//First Small Instance: 
Params = <19,8,13,8,2>;
Workers = { 
<1,3>,
<2,5>,
<3,3>,
<4,4>,
<5,5>,
<6,2>,
<7,4>,
<8,5>
};
Ops = { 
<1,1,1>,
<2,1,2>,
<3,1,3>,
<4,1,4>,
<5,1,5>,
<6,1,6>,
<7,1,7>,
<8,1,8>,
<9,1,9>,
<14,1,10>,
<15,1,11>,
<20,1,12>,
<21,1,13>,
<23,1,14>,
<25,2,1>,
<26,2,2>,
<27,2,3>,
<28,2,4>,
<29,2,5>,
<30,2,6>,
<31,2,7>,
<32,2,8>,
<33,2,9>,
<34,2,10>,
<35,2,11>,
<36,2,12>,
<37,2,13>,
<38,2,14>,
<39,2,15>,
<40,2,16>,
<41,2,17>,
<43,2,18>,
<46,2,19>,
<49,3,1>,
<50,3,2>,
<51,3,3>,
<52,3,4>,
<53,3,5>,
<54,3,6>,
<55,3,7>,
<56,3,8>,
<57,3,9>,
<59,3,10>,
<64,3,11>,
<65,3,12>,
<66,3,13>,
<69,3,14>,
<70,3,15>,
<71,3,16>,
<73,4,1>,
<74,4,2>,
<75,4,3>,
<76,4,4>,
<77,4,5>,
<78,4,6>,
<79,4,7>,
<80,4,8>,
<81,4,9>,
<83,4,10>,
<87,4,11>,
<91,4,12>,
<97,5,1>,
<98,5,2>,
<99,5,3>,
<100,5,4>,
<101,5,5>,
<102,5,6>,
<103,5,7>,
<104,5,8>,
<105,5,9>,
<107,5,10>,
<108,5,11>,
<110,5,12>,
<112,5,13>,
<115,5,14>,
<120,5,15>,
<121,6,1>,
<122,6,2>,
<123,6,3>,
<124,6,4>,
<125,6,5>,
<126,6,6>,
<127,6,7>,
<128,6,8>,
<129,6,9>,
<130,6,10>,
<134,6,11>,
<135,6,12>,
<141,6,13>,
<145,7,1>,
<146,7,2>,
<147,7,3>,
<148,7,4>,
<149,7,5>,
<150,7,6>,
<151,7,7>,
<152,7,8>,
<153,7,9>,
<154,7,10>,
<160,7,11>,
<161,7,12>,
<162,7,13>,
<163,7,14>,
<165,7,15>,
<166,7,16>,
<168,7,17>,
<169,8,1>,
<170,8,2>,
<171,8,3>,
<172,8,4>,
<173,8,5>,
<174,8,6>,
<175,8,7>,
<176,8,8>,
<177,8,9>,
<178,8,10>,
<179,8,11>,
<182,8,12>,
<183,8,13>,
<184,8,14>,
<191,8,15>,
<192,8,16>,
<193,9,1>,
<194,9,2>,
<195,9,3>,
<196,9,4>,
<197,9,5>,
<198,9,6>,
<199,9,7>,
<200,9,8>,
<201,9,9>,
<202,9,10>,
<203,9,11>,
<204,9,12>,
<205,9,13>,
<206,9,14>,
<210,9,15>,
<211,9,16>,
<212,9,17>,
<214,9,18>,
<215,9,19>,
<216,9,20>,
<217,10,1>,
<218,10,2>,
<219,10,3>,
<220,10,4>,
<221,10,5>,
<222,10,6>,
<223,10,7>,
<224,10,8>,
<225,10,9>,
<227,10,10>,
<228,10,11>,
<229,10,12>,
<230,10,13>,
<231,10,14>,
<232,10,15>,
<233,10,16>,
<234,10,17>,
<235,10,18>,
<236,10,19>,
<237,10,20>,
<238,10,21>,
<240,10,22>,
<241,11,1>,
<242,11,2>,
<243,11,3>,
<244,11,4>,
<245,11,5>,
<246,11,6>,
<247,11,7>,
<248,11,8>,
<249,11,9>,
<251,11,10>,
<252,11,11>,
<253,11,12>,
<255,11,13>,
<256,11,14>,
<258,11,15>,
<260,11,16>,
<261,11,17>,
<265,12,1>,
<266,12,2>,
<267,12,3>,
<268,12,4>,
<269,12,5>,
<270,12,6>,
<271,12,7>,
<272,12,8>,
<273,12,9>,
<275,12,10>,
<278,12,11>,
<282,12,12>,
<284,12,13>,
<285,12,14>,
<287,12,15>,
<288,12,16>,
<289,13,1>,
<290,13,2>,
<291,13,3>,
<292,13,4>,
<293,13,5>,
<294,13,6>,
<295,13,7>,
<296,13,8>,
<297,13,9>,
<298,13,10>,
<299,13,11>,
<301,13,12>,
<302,13,13>,
<304,13,14>,
<305,13,15>,
<309,13,16>,
<311,13,17>,
<313,14,1>,
<314,14,2>,
<315,14,3>,
<316,14,4>,
<317,14,5>,
<318,14,6>,
<319,14,7>,
<320,14,8>,
<321,14,9>,
<322,14,10>,
<325,14,11>,
<326,14,12>,
<327,14,13>,
<329,14,14>,
<332,14,15>,
<335,14,16>,
<336,14,17>,
<337,15,1>,
<338,15,2>,
<339,15,3>,
<340,15,4>,
<341,15,5>,
<342,15,6>,
<343,15,7>,
<344,15,8>,
<345,15,9>,
<346,15,10>,
<348,15,11>,
<352,15,12>,
<355,15,13>,
<357,15,14>,
<360,15,15>,
<361,16,1>,
<362,16,2>,
<363,16,3>,
<364,16,4>,
<365,16,5>,
<366,16,6>,
<367,16,7>,
<368,16,8>,
<369,16,9>,
<372,16,10>,
<374,16,11>,
<375,16,12>,
<376,16,13>,
<378,16,14>,
<380,16,15>,
<381,16,16>,
<382,16,17>,
<383,16,18>,
<384,16,19>,
<385,17,1>,
<386,17,2>,
<387,17,3>,
<388,17,4>,
<389,17,5>,
<390,17,6>,
<391,17,7>,
<392,17,8>,
<393,17,9>,
<395,17,10>,
<396,17,11>,
<398,17,12>,
<400,17,13>,
<401,17,14>,
<402,17,15>,
<404,17,16>,
<405,17,17>,
<407,17,18>,
<409,18,1>,
<410,18,2>,
<411,18,3>,
<412,18,4>,
<413,18,5>,
<414,18,6>,
<415,18,7>,
<416,18,8>,
<417,18,9>,
<420,18,10>,
<421,18,11>,
<422,18,12>,
<423,18,13>,
<426,18,14>,
<427,18,15>,
<433,19,1>,
<434,19,2>,
<435,19,3>,
<436,19,4>,
<437,19,5>,
<438,19,6>,
<439,19,7>,
<440,19,8>,
<441,19,9>,
<442,19,10>,
<443,19,11>,
<444,19,12>,
<448,19,13>,
<449,19,14>,
<452,19,15>,
<455,19,16>
 };
Modes = { 
<1,1,10,1>,
<1,1,10,2>,
<1,1,10,3>,
<1,1,10,5>,
<1,1,10,6>,
<1,1,10,7>,
<1,1,10,8>,
<1,2,10,1>,
<1,2,10,2>,
<1,2,10,3>,
<1,2,10,5>,
<1,2,10,6>,
<1,2,10,7>,
<1,2,10,8>,
<2,3,4,2>,
<2,3,4,5>,
<2,3,4,7>,
<2,3,4,8>,
<3,4,4,1>,
<3,4,4,2>,
<3,4,4,3>,
<3,5,4,1>,
<3,5,4,2>,
<3,5,4,3>,
<4,6,2,4>,
<4,6,2,5>,
<4,6,2,6>,
<4,6,2,8>,
<5,7,10,7>,
<5,7,10,8>,
<5,8,10,7>,
<5,8,10,8>,
<6,9,10,2>,
<6,9,10,3>,
<6,9,10,4>,
<6,9,10,5>,
<6,9,10,6>,
<6,9,10,7>,
<7,10,2,1>,
<7,10,2,2>,
<7,10,2,4>,
<7,10,2,5>,
<7,10,2,7>,
<7,10,2,8>,
<7,11,2,1>,
<7,11,2,2>,
<7,11,2,4>,
<7,11,2,5>,
<7,11,2,7>,
<7,11,2,8>,
<8,12,2,1>,
<8,12,2,2>,
<8,12,2,3>,
<8,12,2,4>,
<8,12,2,5>,
<8,12,2,8>,
<8,13,2,1>,
<8,13,2,2>,
<8,13,2,3>,
<8,13,2,4>,
<8,13,2,5>,
<8,13,2,8>,
<9,1,3,1>,
<9,1,3,2>,
<9,1,3,3>,
<9,1,3,5>,
<9,1,3,6>,
<9,1,3,7>,
<9,1,3,8>,
<9,2,3,1>,
<9,2,3,2>,
<9,2,3,3>,
<9,2,3,5>,
<9,2,3,6>,
<9,2,3,7>,
<9,2,3,8>,
<14,9,2,2>,
<14,9,2,3>,
<14,9,2,4>,
<14,9,2,5>,
<14,9,2,6>,
<14,9,2,7>,
<15,10,5,1>,
<15,10,5,2>,
<15,10,5,4>,
<15,10,5,5>,
<15,10,5,7>,
<15,10,5,8>,
<15,11,5,1>,
<15,11,5,2>,
<15,11,5,4>,
<15,11,5,5>,
<15,11,5,7>,
<15,11,5,8>,
<20,6,6,4>,
<20,6,6,5>,
<20,6,6,6>,
<20,6,6,8>,
<21,7,5,7>,
<21,7,5,8>,
<21,8,5,7>,
<21,8,5,8>,
<23,10,1,1>,
<23,10,1,2>,
<23,10,1,4>,
<23,10,1,5>,
<23,10,1,7>,
<23,10,1,8>,
<23,11,1,1>,
<23,11,1,2>,
<23,11,1,4>,
<23,11,1,5>,
<23,11,1,7>,
<23,11,1,8>,
<25,1,6,1>,
<25,1,6,2>,
<25,1,6,3>,
<25,1,6,5>,
<25,1,6,6>,
<25,1,6,7>,
<25,1,6,8>,
<25,2,6,1>,
<25,2,6,2>,
<25,2,6,3>,
<25,2,6,5>,
<25,2,6,6>,
<25,2,6,7>,
<25,2,6,8>,
<26,3,8,2>,
<26,3,8,5>,
<26,3,8,7>,
<26,3,8,8>,
<27,4,8,1>,
<27,4,8,2>,
<27,4,8,3>,
<27,5,8,1>,
<27,5,8,2>,
<27,5,8,3>,
<28,6,10,4>,
<28,6,10,5>,
<28,6,10,6>,
<28,6,10,8>,
<29,7,2,7>,
<29,7,2,8>,
<29,8,2,7>,
<29,8,2,8>,
<30,9,3,2>,
<30,9,3,3>,
<30,9,3,4>,
<30,9,3,5>,
<30,9,3,6>,
<30,9,3,7>,
<31,10,6,1>,
<31,10,6,2>,
<31,10,6,4>,
<31,10,6,5>,
<31,10,6,7>,
<31,10,6,8>,
<31,11,6,1>,
<31,11,6,2>,
<31,11,6,4>,
<31,11,6,5>,
<31,11,6,7>,
<31,11,6,8>,
<32,12,3,1>,
<32,12,3,2>,
<32,12,3,3>,
<32,12,3,4>,
<32,12,3,5>,
<32,12,3,8>,
<32,13,3,1>,
<32,13,3,2>,
<32,13,3,3>,
<32,13,3,4>,
<32,13,3,5>,
<32,13,3,8>,
<33,1,4,1>,
<33,1,4,2>,
<33,1,4,3>,
<33,1,4,5>,
<33,1,4,6>,
<33,1,4,7>,
<33,1,4,8>,
<33,2,4,1>,
<33,2,4,2>,
<33,2,4,3>,
<33,2,4,5>,
<33,2,4,6>,
<33,2,4,7>,
<33,2,4,8>,
<34,3,5,2>,
<34,3,5,5>,
<34,3,5,7>,
<34,3,5,8>,
<35,4,4,1>,
<35,4,4,2>,
<35,4,4,3>,
<35,5,4,1>,
<35,5,4,2>,
<35,5,4,3>,
<36,6,3,4>,
<36,6,3,5>,
<36,6,3,6>,
<36,6,3,8>,
<37,7,1,7>,
<37,7,1,8>,
<37,8,1,7>,
<37,8,1,8>,
<38,9,10,2>,
<38,9,10,3>,
<38,9,10,4>,
<38,9,10,5>,
<38,9,10,6>,
<38,9,10,7>,
<39,10,5,1>,
<39,10,5,2>,
<39,10,5,4>,
<39,10,5,5>,
<39,10,5,7>,
<39,10,5,8>,
<39,11,5,1>,
<39,11,5,2>,
<39,11,5,4>,
<39,11,5,5>,
<39,11,5,7>,
<39,11,5,8>,
<40,12,6,1>,
<40,12,6,2>,
<40,12,6,3>,
<40,12,6,4>,
<40,12,6,5>,
<40,12,6,8>,
<40,13,6,1>,
<40,13,6,2>,
<40,13,6,3>,
<40,13,6,4>,
<40,13,6,5>,
<40,13,6,8>,
<41,1,4,1>,
<41,1,4,2>,
<41,1,4,3>,
<41,1,4,5>,
<41,1,4,6>,
<41,1,4,7>,
<41,1,4,8>,
<41,2,4,1>,
<41,2,4,2>,
<41,2,4,3>,
<41,2,4,5>,
<41,2,4,6>,
<41,2,4,7>,
<41,2,4,8>,
<43,4,2,1>,
<43,4,2,2>,
<43,4,2,3>,
<43,5,2,1>,
<43,5,2,2>,
<43,5,2,3>,
<46,9,5,2>,
<46,9,5,3>,
<46,9,5,4>,
<46,9,5,5>,
<46,9,5,6>,
<46,9,5,7>,
<49,1,4,1>,
<49,1,4,2>,
<49,1,4,3>,
<49,1,4,5>,
<49,1,4,6>,
<49,1,4,7>,
<49,1,4,8>,
<49,2,4,1>,
<49,2,4,2>,
<49,2,4,3>,
<49,2,4,5>,
<49,2,4,6>,
<49,2,4,7>,
<49,2,4,8>,
<50,3,5,2>,
<50,3,5,5>,
<50,3,5,7>,
<50,3,5,8>,
<51,4,2,1>,
<51,4,2,2>,
<51,4,2,3>,
<51,5,2,1>,
<51,5,2,2>,
<51,5,2,3>,
<52,6,3,4>,
<52,6,3,5>,
<52,6,3,6>,
<52,6,3,8>,
<53,7,7,7>,
<53,7,7,8>,
<53,8,7,7>,
<53,8,7,8>,
<54,9,6,2>,
<54,9,6,3>,
<54,9,6,4>,
<54,9,6,5>,
<54,9,6,6>,
<54,9,6,7>,
<55,10,10,1>,
<55,10,10,2>,
<55,10,10,4>,
<55,10,10,5>,
<55,10,10,7>,
<55,10,10,8>,
<55,11,10,1>,
<55,11,10,2>,
<55,11,10,4>,
<55,11,10,5>,
<55,11,10,7>,
<55,11,10,8>,
<56,12,9,1>,
<56,12,9,2>,
<56,12,9,3>,
<56,12,9,4>,
<56,12,9,5>,
<56,12,9,8>,
<56,13,9,1>,
<56,13,9,2>,
<56,13,9,3>,
<56,13,9,4>,
<56,13,9,5>,
<56,13,9,8>,
<57,1,4,1>,
<57,1,4,2>,
<57,1,4,3>,
<57,1,4,5>,
<57,1,4,6>,
<57,1,4,7>,
<57,1,4,8>,
<57,2,4,1>,
<57,2,4,2>,
<57,2,4,3>,
<57,2,4,5>,
<57,2,4,6>,
<57,2,4,7>,
<57,2,4,8>,
<59,4,3,1>,
<59,4,3,2>,
<59,4,3,3>,
<59,5,3,1>,
<59,5,3,2>,
<59,5,3,3>,
<64,12,6,1>,
<64,12,6,2>,
<64,12,6,3>,
<64,12,6,4>,
<64,12,6,5>,
<64,12,6,8>,
<64,13,6,1>,
<64,13,6,2>,
<64,13,6,3>,
<64,13,6,4>,
<64,13,6,5>,
<64,13,6,8>,
<65,1,2,1>,
<65,1,2,2>,
<65,1,2,3>,
<65,1,2,5>,
<65,1,2,6>,
<65,1,2,7>,
<65,1,2,8>,
<65,2,2,1>,
<65,2,2,2>,
<65,2,2,3>,
<65,2,2,5>,
<65,2,2,6>,
<65,2,2,7>,
<65,2,2,8>,
<66,3,6,2>,
<66,3,6,5>,
<66,3,6,7>,
<66,3,6,8>,
<69,7,10,7>,
<69,7,10,8>,
<69,8,10,7>,
<69,8,10,8>,
<70,9,9,2>,
<70,9,9,3>,
<70,9,9,4>,
<70,9,9,5>,
<70,9,9,6>,
<70,9,9,7>,
<71,10,1,1>,
<71,10,1,2>,
<71,10,1,4>,
<71,10,1,5>,
<71,10,1,7>,
<71,10,1,8>,
<71,11,1,1>,
<71,11,1,2>,
<71,11,1,4>,
<71,11,1,5>,
<71,11,1,7>,
<71,11,1,8>,
<73,1,10,1>,
<73,1,10,2>,
<73,1,10,3>,
<73,1,10,5>,
<73,1,10,6>,
<73,1,10,7>,
<73,1,10,8>,
<73,2,10,1>,
<73,2,10,2>,
<73,2,10,3>,
<73,2,10,5>,
<73,2,10,6>,
<73,2,10,7>,
<73,2,10,8>,
<74,3,1,2>,
<74,3,1,5>,
<74,3,1,7>,
<74,3,1,8>,
<75,4,6,1>,
<75,4,6,2>,
<75,4,6,3>,
<75,5,6,1>,
<75,5,6,2>,
<75,5,6,3>,
<76,6,10,4>,
<76,6,10,5>,
<76,6,10,6>,
<76,6,10,8>,
<77,7,6,7>,
<77,7,6,8>,
<77,8,6,7>,
<77,8,6,8>,
<78,9,7,2>,
<78,9,7,3>,
<78,9,7,4>,
<78,9,7,5>,
<78,9,7,6>,
<78,9,7,7>,
<79,10,2,1>,
<79,10,2,2>,
<79,10,2,4>,
<79,10,2,5>,
<79,10,2,7>,
<79,10,2,8>,
<79,11,2,1>,
<79,11,2,2>,
<79,11,2,4>,
<79,11,2,5>,
<79,11,2,7>,
<79,11,2,8>,
<80,12,8,1>,
<80,12,8,2>,
<80,12,8,3>,
<80,12,8,4>,
<80,12,8,5>,
<80,12,8,8>,
<80,13,8,1>,
<80,13,8,2>,
<80,13,8,3>,
<80,13,8,4>,
<80,13,8,5>,
<80,13,8,8>,
<81,1,1,1>,
<81,1,1,2>,
<81,1,1,3>,
<81,1,1,5>,
<81,1,1,6>,
<81,1,1,7>,
<81,1,1,8>,
<81,2,1,1>,
<81,2,1,2>,
<81,2,1,3>,
<81,2,1,5>,
<81,2,1,6>,
<81,2,1,7>,
<81,2,1,8>,
<83,4,7,1>,
<83,4,7,2>,
<83,4,7,3>,
<83,5,7,1>,
<83,5,7,2>,
<83,5,7,3>,
<87,10,8,1>,
<87,10,8,2>,
<87,10,8,4>,
<87,10,8,5>,
<87,10,8,7>,
<87,10,8,8>,
<87,11,8,1>,
<87,11,8,2>,
<87,11,8,4>,
<87,11,8,5>,
<87,11,8,7>,
<87,11,8,8>,
<91,4,3,1>,
<91,4,3,2>,
<91,4,3,3>,
<91,5,3,1>,
<91,5,3,2>,
<91,5,3,3>,
<97,1,8,1>,
<97,1,8,2>,
<97,1,8,3>,
<97,1,8,5>,
<97,1,8,6>,
<97,1,8,7>,
<97,1,8,8>,
<97,2,8,1>,
<97,2,8,2>,
<97,2,8,3>,
<97,2,8,5>,
<97,2,8,6>,
<97,2,8,7>,
<97,2,8,8>,
<98,3,2,2>,
<98,3,2,5>,
<98,3,2,7>,
<98,3,2,8>,
<99,4,1,1>,
<99,4,1,2>,
<99,4,1,3>,
<99,5,1,1>,
<99,5,1,2>,
<99,5,1,3>,
<100,6,2,4>,
<100,6,2,5>,
<100,6,2,6>,
<100,6,2,8>,
<101,7,3,7>,
<101,7,3,8>,
<101,8,3,7>,
<101,8,3,8>,
<102,9,4,2>,
<102,9,4,3>,
<102,9,4,4>,
<102,9,4,5>,
<102,9,4,6>,
<102,9,4,7>,
<103,10,5,1>,
<103,10,5,2>,
<103,10,5,4>,
<103,10,5,5>,
<103,10,5,7>,
<103,10,5,8>,
<103,11,5,1>,
<103,11,5,2>,
<103,11,5,4>,
<103,11,5,5>,
<103,11,5,7>,
<103,11,5,8>,
<104,12,6,1>,
<104,12,6,2>,
<104,12,6,3>,
<104,12,6,4>,
<104,12,6,5>,
<104,12,6,8>,
<104,13,6,1>,
<104,13,6,2>,
<104,13,6,3>,
<104,13,6,4>,
<104,13,6,5>,
<104,13,6,8>,
<105,1,7,1>,
<105,1,7,2>,
<105,1,7,3>,
<105,1,7,5>,
<105,1,7,6>,
<105,1,7,7>,
<105,1,7,8>,
<105,2,7,1>,
<105,2,7,2>,
<105,2,7,3>,
<105,2,7,5>,
<105,2,7,6>,
<105,2,7,7>,
<105,2,7,8>,
<107,4,6,1>,
<107,4,6,2>,
<107,4,6,3>,
<107,5,6,1>,
<107,5,6,2>,
<107,5,6,3>,
<108,6,4,4>,
<108,6,4,5>,
<108,6,4,6>,
<108,6,4,8>,
<110,9,4,2>,
<110,9,4,3>,
<110,9,4,4>,
<110,9,4,5>,
<110,9,4,6>,
<110,9,4,7>,
<112,12,10,1>,
<112,12,10,2>,
<112,12,10,3>,
<112,12,10,4>,
<112,12,10,5>,
<112,12,10,8>,
<112,13,10,1>,
<112,13,10,2>,
<112,13,10,3>,
<112,13,10,4>,
<112,13,10,5>,
<112,13,10,8>,
<115,4,10,1>,
<115,4,10,2>,
<115,4,10,3>,
<115,5,10,1>,
<115,5,10,2>,
<115,5,10,3>,
<120,12,10,1>,
<120,12,10,2>,
<120,12,10,3>,
<120,12,10,4>,
<120,12,10,5>,
<120,12,10,8>,
<120,13,10,1>,
<120,13,10,2>,
<120,13,10,3>,
<120,13,10,4>,
<120,13,10,5>,
<120,13,10,8>,
<121,1,3,1>,
<121,1,3,2>,
<121,1,3,3>,
<121,1,3,5>,
<121,1,3,6>,
<121,1,3,7>,
<121,1,3,8>,
<121,2,3,1>,
<121,2,3,2>,
<121,2,3,3>,
<121,2,3,5>,
<121,2,3,6>,
<121,2,3,7>,
<121,2,3,8>,
<122,3,3,2>,
<122,3,3,5>,
<122,3,3,7>,
<122,3,3,8>,
<123,4,5,1>,
<123,4,5,2>,
<123,4,5,3>,
<123,5,5,1>,
<123,5,5,2>,
<123,5,5,3>,
<124,6,4,4>,
<124,6,4,5>,
<124,6,4,6>,
<124,6,4,8>,
<125,7,5,7>,
<125,7,5,8>,
<125,8,5,7>,
<125,8,5,8>,
<126,9,3,2>,
<126,9,3,3>,
<126,9,3,4>,
<126,9,3,5>,
<126,9,3,6>,
<126,9,3,7>,
<127,10,4,1>,
<127,10,4,2>,
<127,10,4,4>,
<127,10,4,5>,
<127,10,4,7>,
<127,10,4,8>,
<127,11,4,1>,
<127,11,4,2>,
<127,11,4,4>,
<127,11,4,5>,
<127,11,4,7>,
<127,11,4,8>,
<128,12,6,1>,
<128,12,6,2>,
<128,12,6,3>,
<128,12,6,4>,
<128,12,6,5>,
<128,12,6,8>,
<128,13,6,1>,
<128,13,6,2>,
<128,13,6,3>,
<128,13,6,4>,
<128,13,6,5>,
<128,13,6,8>,
<129,1,2,1>,
<129,1,2,2>,
<129,1,2,3>,
<129,1,2,5>,
<129,1,2,6>,
<129,1,2,7>,
<129,1,2,8>,
<129,2,2,1>,
<129,2,2,2>,
<129,2,2,3>,
<129,2,2,5>,
<129,2,2,6>,
<129,2,2,7>,
<129,2,2,8>,
<130,3,8,2>,
<130,3,8,5>,
<130,3,8,7>,
<130,3,8,8>,
<134,9,10,2>,
<134,9,10,3>,
<134,9,10,4>,
<134,9,10,5>,
<134,9,10,6>,
<134,9,10,7>,
<135,10,2,1>,
<135,10,2,2>,
<135,10,2,4>,
<135,10,2,5>,
<135,10,2,7>,
<135,10,2,8>,
<135,11,2,1>,
<135,11,2,2>,
<135,11,2,4>,
<135,11,2,5>,
<135,11,2,7>,
<135,11,2,8>,
<141,7,9,7>,
<141,7,9,8>,
<141,8,9,7>,
<141,8,9,8>,
<145,1,4,1>,
<145,1,4,2>,
<145,1,4,3>,
<145,1,4,5>,
<145,1,4,6>,
<145,1,4,7>,
<145,1,4,8>,
<145,2,4,1>,
<145,2,4,2>,
<145,2,4,3>,
<145,2,4,5>,
<145,2,4,6>,
<145,2,4,7>,
<145,2,4,8>,
<146,3,10,2>,
<146,3,10,5>,
<146,3,10,7>,
<146,3,10,8>,
<147,4,5,1>,
<147,4,5,2>,
<147,4,5,3>,
<147,5,5,1>,
<147,5,5,2>,
<147,5,5,3>,
<148,6,9,4>,
<148,6,9,5>,
<148,6,9,6>,
<148,6,9,8>,
<149,7,10,7>,
<149,7,10,8>,
<149,8,10,7>,
<149,8,10,8>,
<150,9,9,2>,
<150,9,9,3>,
<150,9,9,4>,
<150,9,9,5>,
<150,9,9,6>,
<150,9,9,7>,
<151,10,6,1>,
<151,10,6,2>,
<151,10,6,4>,
<151,10,6,5>,
<151,10,6,7>,
<151,10,6,8>,
<151,11,6,1>,
<151,11,6,2>,
<151,11,6,4>,
<151,11,6,5>,
<151,11,6,7>,
<151,11,6,8>,
<152,12,8,1>,
<152,12,8,2>,
<152,12,8,3>,
<152,12,8,4>,
<152,12,8,5>,
<152,12,8,8>,
<152,13,8,1>,
<152,13,8,2>,
<152,13,8,3>,
<152,13,8,4>,
<152,13,8,5>,
<152,13,8,8>,
<153,1,7,1>,
<153,1,7,2>,
<153,1,7,3>,
<153,1,7,5>,
<153,1,7,6>,
<153,1,7,7>,
<153,1,7,8>,
<153,2,7,1>,
<153,2,7,2>,
<153,2,7,3>,
<153,2,7,5>,
<153,2,7,6>,
<153,2,7,7>,
<153,2,7,8>,
<154,3,10,2>,
<154,3,10,5>,
<154,3,10,7>,
<154,3,10,8>,
<160,12,10,1>,
<160,12,10,2>,
<160,12,10,3>,
<160,12,10,4>,
<160,12,10,5>,
<160,12,10,8>,
<160,13,10,1>,
<160,13,10,2>,
<160,13,10,3>,
<160,13,10,4>,
<160,13,10,5>,
<160,13,10,8>,
<161,1,3,1>,
<161,1,3,2>,
<161,1,3,3>,
<161,1,3,5>,
<161,1,3,6>,
<161,1,3,7>,
<161,1,3,8>,
<161,2,3,1>,
<161,2,3,2>,
<161,2,3,3>,
<161,2,3,5>,
<161,2,3,6>,
<161,2,3,7>,
<161,2,3,8>,
<162,3,6,2>,
<162,3,6,5>,
<162,3,6,7>,
<162,3,6,8>,
<163,4,7,1>,
<163,4,7,2>,
<163,4,7,3>,
<163,5,7,1>,
<163,5,7,2>,
<163,5,7,3>,
<165,7,1,7>,
<165,7,1,8>,
<165,8,1,7>,
<165,8,1,8>,
<166,9,9,2>,
<166,9,9,3>,
<166,9,9,4>,
<166,9,9,5>,
<166,9,9,6>,
<166,9,9,7>,
<168,12,4,1>,
<168,12,4,2>,
<168,12,4,3>,
<168,12,4,4>,
<168,12,4,5>,
<168,12,4,8>,
<168,13,4,1>,
<168,13,4,2>,
<168,13,4,3>,
<168,13,4,4>,
<168,13,4,5>,
<168,13,4,8>,
<169,1,7,1>,
<169,1,7,2>,
<169,1,7,3>,
<169,1,7,5>,
<169,1,7,6>,
<169,1,7,7>,
<169,1,7,8>,
<169,2,7,1>,
<169,2,7,2>,
<169,2,7,3>,
<169,2,7,5>,
<169,2,7,6>,
<169,2,7,7>,
<169,2,7,8>,
<170,3,7,2>,
<170,3,7,5>,
<170,3,7,7>,
<170,3,7,8>,
<171,4,3,1>,
<171,4,3,2>,
<171,4,3,3>,
<171,5,3,1>,
<171,5,3,2>,
<171,5,3,3>,
<172,6,10,4>,
<172,6,10,5>,
<172,6,10,6>,
<172,6,10,8>,
<173,7,4,7>,
<173,7,4,8>,
<173,8,4,7>,
<173,8,4,8>,
<174,9,4,2>,
<174,9,4,3>,
<174,9,4,4>,
<174,9,4,5>,
<174,9,4,6>,
<174,9,4,7>,
<175,10,1,1>,
<175,10,1,2>,
<175,10,1,4>,
<175,10,1,5>,
<175,10,1,7>,
<175,10,1,8>,
<175,11,1,1>,
<175,11,1,2>,
<175,11,1,4>,
<175,11,1,5>,
<175,11,1,7>,
<175,11,1,8>,
<176,12,1,1>,
<176,12,1,2>,
<176,12,1,3>,
<176,12,1,4>,
<176,12,1,5>,
<176,12,1,8>,
<176,13,1,1>,
<176,13,1,2>,
<176,13,1,3>,
<176,13,1,4>,
<176,13,1,5>,
<176,13,1,8>,
<177,1,9,1>,
<177,1,9,2>,
<177,1,9,3>,
<177,1,9,5>,
<177,1,9,6>,
<177,1,9,7>,
<177,1,9,8>,
<177,2,9,1>,
<177,2,9,2>,
<177,2,9,3>,
<177,2,9,5>,
<177,2,9,6>,
<177,2,9,7>,
<177,2,9,8>,
<178,3,9,2>,
<178,3,9,5>,
<178,3,9,7>,
<178,3,9,8>,
<179,4,9,1>,
<179,4,9,2>,
<179,4,9,3>,
<179,5,9,1>,
<179,5,9,2>,
<179,5,9,3>,
<182,9,6,2>,
<182,9,6,3>,
<182,9,6,4>,
<182,9,6,5>,
<182,9,6,6>,
<182,9,6,7>,
<183,10,1,1>,
<183,10,1,2>,
<183,10,1,4>,
<183,10,1,5>,
<183,10,1,7>,
<183,10,1,8>,
<183,11,1,1>,
<183,11,1,2>,
<183,11,1,4>,
<183,11,1,5>,
<183,11,1,7>,
<183,11,1,8>,
<184,12,1,1>,
<184,12,1,2>,
<184,12,1,3>,
<184,12,1,4>,
<184,12,1,5>,
<184,12,1,8>,
<184,13,1,1>,
<184,13,1,2>,
<184,13,1,3>,
<184,13,1,4>,
<184,13,1,5>,
<184,13,1,8>,
<191,10,3,1>,
<191,10,3,2>,
<191,10,3,4>,
<191,10,3,5>,
<191,10,3,7>,
<191,10,3,8>,
<191,11,3,1>,
<191,11,3,2>,
<191,11,3,4>,
<191,11,3,5>,
<191,11,3,7>,
<191,11,3,8>,
<192,12,1,1>,
<192,12,1,2>,
<192,12,1,3>,
<192,12,1,4>,
<192,12,1,5>,
<192,12,1,8>,
<192,13,1,1>,
<192,13,1,2>,
<192,13,1,3>,
<192,13,1,4>,
<192,13,1,5>,
<192,13,1,8>,
<193,1,7,1>,
<193,1,7,2>,
<193,1,7,3>,
<193,1,7,5>,
<193,1,7,6>,
<193,1,7,7>,
<193,1,7,8>,
<193,2,7,1>,
<193,2,7,2>,
<193,2,7,3>,
<193,2,7,5>,
<193,2,7,6>,
<193,2,7,7>,
<193,2,7,8>,
<194,3,3,2>,
<194,3,3,5>,
<194,3,3,7>,
<194,3,3,8>,
<195,4,1,1>,
<195,4,1,2>,
<195,4,1,3>,
<195,5,1,1>,
<195,5,1,2>,
<195,5,1,3>,
<196,6,6,4>,
<196,6,6,5>,
<196,6,6,6>,
<196,6,6,8>,
<197,7,9,7>,
<197,7,9,8>,
<197,8,9,7>,
<197,8,9,8>,
<198,9,6,2>,
<198,9,6,3>,
<198,9,6,4>,
<198,9,6,5>,
<198,9,6,6>,
<198,9,6,7>,
<199,10,1,1>,
<199,10,1,2>,
<199,10,1,4>,
<199,10,1,5>,
<199,10,1,7>,
<199,10,1,8>,
<199,11,1,1>,
<199,11,1,2>,
<199,11,1,4>,
<199,11,1,5>,
<199,11,1,7>,
<199,11,1,8>,
<200,12,5,1>,
<200,12,5,2>,
<200,12,5,3>,
<200,12,5,4>,
<200,12,5,5>,
<200,12,5,8>,
<200,13,5,1>,
<200,13,5,2>,
<200,13,5,3>,
<200,13,5,4>,
<200,13,5,5>,
<200,13,5,8>,
<201,1,7,1>,
<201,1,7,2>,
<201,1,7,3>,
<201,1,7,5>,
<201,1,7,6>,
<201,1,7,7>,
<201,1,7,8>,
<201,2,7,1>,
<201,2,7,2>,
<201,2,7,3>,
<201,2,7,5>,
<201,2,7,6>,
<201,2,7,7>,
<201,2,7,8>,
<202,3,5,2>,
<202,3,5,5>,
<202,3,5,7>,
<202,3,5,8>,
<203,4,3,1>,
<203,4,3,2>,
<203,4,3,3>,
<203,5,3,1>,
<203,5,3,2>,
<203,5,3,3>,
<204,6,7,4>,
<204,6,7,5>,
<204,6,7,6>,
<204,6,7,8>,
<205,7,6,7>,
<205,7,6,8>,
<205,8,6,7>,
<205,8,6,8>,
<206,9,10,2>,
<206,9,10,3>,
<206,9,10,4>,
<206,9,10,5>,
<206,9,10,6>,
<206,9,10,7>,
<210,3,2,2>,
<210,3,2,5>,
<210,3,2,7>,
<210,3,2,8>,
<211,4,10,1>,
<211,4,10,2>,
<211,4,10,3>,
<211,5,10,1>,
<211,5,10,2>,
<211,5,10,3>,
<212,6,8,4>,
<212,6,8,5>,
<212,6,8,6>,
<212,6,8,8>,
<214,9,9,2>,
<214,9,9,3>,
<214,9,9,4>,
<214,9,9,5>,
<214,9,9,6>,
<214,9,9,7>,
<215,10,8,1>,
<215,10,8,2>,
<215,10,8,4>,
<215,10,8,5>,
<215,10,8,7>,
<215,10,8,8>,
<215,11,8,1>,
<215,11,8,2>,
<215,11,8,4>,
<215,11,8,5>,
<215,11,8,7>,
<215,11,8,8>,
<216,12,2,1>,
<216,12,2,2>,
<216,12,2,3>,
<216,12,2,4>,
<216,12,2,5>,
<216,12,2,8>,
<216,13,2,1>,
<216,13,2,2>,
<216,13,2,3>,
<216,13,2,4>,
<216,13,2,5>,
<216,13,2,8>,
<217,1,10,1>,
<217,1,10,2>,
<217,1,10,3>,
<217,1,10,5>,
<217,1,10,6>,
<217,1,10,7>,
<217,1,10,8>,
<217,2,10,1>,
<217,2,10,2>,
<217,2,10,3>,
<217,2,10,5>,
<217,2,10,6>,
<217,2,10,7>,
<217,2,10,8>,
<218,3,8,2>,
<218,3,8,5>,
<218,3,8,7>,
<218,3,8,8>,
<219,4,5,1>,
<219,4,5,2>,
<219,4,5,3>,
<219,5,5,1>,
<219,5,5,2>,
<219,5,5,3>,
<220,6,4,4>,
<220,6,4,5>,
<220,6,4,6>,
<220,6,4,8>,
<221,7,1,7>,
<221,7,1,8>,
<221,8,1,7>,
<221,8,1,8>,
<222,9,2,2>,
<222,9,2,3>,
<222,9,2,4>,
<222,9,2,5>,
<222,9,2,6>,
<222,9,2,7>,
<223,10,3,1>,
<223,10,3,2>,
<223,10,3,4>,
<223,10,3,5>,
<223,10,3,7>,
<223,10,3,8>,
<223,11,3,1>,
<223,11,3,2>,
<223,11,3,4>,
<223,11,3,5>,
<223,11,3,7>,
<223,11,3,8>,
<224,12,10,1>,
<224,12,10,2>,
<224,12,10,3>,
<224,12,10,4>,
<224,12,10,5>,
<224,12,10,8>,
<224,13,10,1>,
<224,13,10,2>,
<224,13,10,3>,
<224,13,10,4>,
<224,13,10,5>,
<224,13,10,8>,
<225,1,8,1>,
<225,1,8,2>,
<225,1,8,3>,
<225,1,8,5>,
<225,1,8,6>,
<225,1,8,7>,
<225,1,8,8>,
<225,2,8,1>,
<225,2,8,2>,
<225,2,8,3>,
<225,2,8,5>,
<225,2,8,6>,
<225,2,8,7>,
<225,2,8,8>,
<227,4,7,1>,
<227,4,7,2>,
<227,4,7,3>,
<227,5,7,1>,
<227,5,7,2>,
<227,5,7,3>,
<228,6,3,4>,
<228,6,3,5>,
<228,6,3,6>,
<228,6,3,8>,
<229,7,7,7>,
<229,7,7,8>,
<229,8,7,7>,
<229,8,7,8>,
<230,9,7,2>,
<230,9,7,3>,
<230,9,7,4>,
<230,9,7,5>,
<230,9,7,6>,
<230,9,7,7>,
<231,10,1,1>,
<231,10,1,2>,
<231,10,1,4>,
<231,10,1,5>,
<231,10,1,7>,
<231,10,1,8>,
<231,11,1,1>,
<231,11,1,2>,
<231,11,1,4>,
<231,11,1,5>,
<231,11,1,7>,
<231,11,1,8>,
<232,12,7,1>,
<232,12,7,2>,
<232,12,7,3>,
<232,12,7,4>,
<232,12,7,5>,
<232,12,7,8>,
<232,13,7,1>,
<232,13,7,2>,
<232,13,7,3>,
<232,13,7,4>,
<232,13,7,5>,
<232,13,7,8>,
<233,1,5,1>,
<233,1,5,2>,
<233,1,5,3>,
<233,1,5,5>,
<233,1,5,6>,
<233,1,5,7>,
<233,1,5,8>,
<233,2,5,1>,
<233,2,5,2>,
<233,2,5,3>,
<233,2,5,5>,
<233,2,5,6>,
<233,2,5,7>,
<233,2,5,8>,
<234,3,4,2>,
<234,3,4,5>,
<234,3,4,7>,
<234,3,4,8>,
<235,4,9,1>,
<235,4,9,2>,
<235,4,9,3>,
<235,5,9,1>,
<235,5,9,2>,
<235,5,9,3>,
<236,6,8,4>,
<236,6,8,5>,
<236,6,8,6>,
<236,6,8,8>,
<237,7,6,7>,
<237,7,6,8>,
<237,8,6,7>,
<237,8,6,8>,
<238,9,7,2>,
<238,9,7,3>,
<238,9,7,4>,
<238,9,7,5>,
<238,9,7,6>,
<238,9,7,7>,
<240,12,5,1>,
<240,12,5,2>,
<240,12,5,3>,
<240,12,5,4>,
<240,12,5,5>,
<240,12,5,8>,
<240,13,5,1>,
<240,13,5,2>,
<240,13,5,3>,
<240,13,5,4>,
<240,13,5,5>,
<240,13,5,8>,
<241,1,10,1>,
<241,1,10,2>,
<241,1,10,3>,
<241,1,10,5>,
<241,1,10,6>,
<241,1,10,7>,
<241,1,10,8>,
<241,2,10,1>,
<241,2,10,2>,
<241,2,10,3>,
<241,2,10,5>,
<241,2,10,6>,
<241,2,10,7>,
<241,2,10,8>,
<242,3,9,2>,
<242,3,9,5>,
<242,3,9,7>,
<242,3,9,8>,
<243,4,5,1>,
<243,4,5,2>,
<243,4,5,3>,
<243,5,5,1>,
<243,5,5,2>,
<243,5,5,3>,
<244,6,10,4>,
<244,6,10,5>,
<244,6,10,6>,
<244,6,10,8>,
<245,7,10,7>,
<245,7,10,8>,
<245,8,10,7>,
<245,8,10,8>,
<246,9,6,2>,
<246,9,6,3>,
<246,9,6,4>,
<246,9,6,5>,
<246,9,6,6>,
<246,9,6,7>,
<247,10,9,1>,
<247,10,9,2>,
<247,10,9,4>,
<247,10,9,5>,
<247,10,9,7>,
<247,10,9,8>,
<247,11,9,1>,
<247,11,9,2>,
<247,11,9,4>,
<247,11,9,5>,
<247,11,9,7>,
<247,11,9,8>,
<248,12,7,1>,
<248,12,7,2>,
<248,12,7,3>,
<248,12,7,4>,
<248,12,7,5>,
<248,12,7,8>,
<248,13,7,1>,
<248,13,7,2>,
<248,13,7,3>,
<248,13,7,4>,
<248,13,7,5>,
<248,13,7,8>,
<249,1,10,1>,
<249,1,10,2>,
<249,1,10,3>,
<249,1,10,5>,
<249,1,10,6>,
<249,1,10,7>,
<249,1,10,8>,
<249,2,10,1>,
<249,2,10,2>,
<249,2,10,3>,
<249,2,10,5>,
<249,2,10,6>,
<249,2,10,7>,
<249,2,10,8>,
<251,4,5,1>,
<251,4,5,2>,
<251,4,5,3>,
<251,5,5,1>,
<251,5,5,2>,
<251,5,5,3>,
<252,6,4,4>,
<252,6,4,5>,
<252,6,4,6>,
<252,6,4,8>,
<253,7,8,7>,
<253,7,8,8>,
<253,8,8,7>,
<253,8,8,8>,
<255,10,6,1>,
<255,10,6,2>,
<255,10,6,4>,
<255,10,6,5>,
<255,10,6,7>,
<255,10,6,8>,
<255,11,6,1>,
<255,11,6,2>,
<255,11,6,4>,
<255,11,6,5>,
<255,11,6,7>,
<255,11,6,8>,
<256,12,8,1>,
<256,12,8,2>,
<256,12,8,3>,
<256,12,8,4>,
<256,12,8,5>,
<256,12,8,8>,
<256,13,8,1>,
<256,13,8,2>,
<256,13,8,3>,
<256,13,8,4>,
<256,13,8,5>,
<256,13,8,8>,
<258,3,2,2>,
<258,3,2,5>,
<258,3,2,7>,
<258,3,2,8>,
<260,6,7,4>,
<260,6,7,5>,
<260,6,7,6>,
<260,6,7,8>,
<261,7,7,7>,
<261,7,7,8>,
<261,8,7,7>,
<261,8,7,8>,
<265,1,8,1>,
<265,1,8,2>,
<265,1,8,3>,
<265,1,8,5>,
<265,1,8,6>,
<265,1,8,7>,
<265,1,8,8>,
<265,2,8,1>,
<265,2,8,2>,
<265,2,8,3>,
<265,2,8,5>,
<265,2,8,6>,
<265,2,8,7>,
<265,2,8,8>,
<266,3,3,2>,
<266,3,3,5>,
<266,3,3,7>,
<266,3,3,8>,
<267,4,5,1>,
<267,4,5,2>,
<267,4,5,3>,
<267,5,5,1>,
<267,5,5,2>,
<267,5,5,3>,
<268,6,8,4>,
<268,6,8,5>,
<268,6,8,6>,
<268,6,8,8>,
<269,7,9,7>,
<269,7,9,8>,
<269,8,9,7>,
<269,8,9,8>,
<270,9,9,2>,
<270,9,9,3>,
<270,9,9,4>,
<270,9,9,5>,
<270,9,9,6>,
<270,9,9,7>,
<271,10,8,1>,
<271,10,8,2>,
<271,10,8,4>,
<271,10,8,5>,
<271,10,8,7>,
<271,10,8,8>,
<271,11,8,1>,
<271,11,8,2>,
<271,11,8,4>,
<271,11,8,5>,
<271,11,8,7>,
<271,11,8,8>,
<272,12,6,1>,
<272,12,6,2>,
<272,12,6,3>,
<272,12,6,4>,
<272,12,6,5>,
<272,12,6,8>,
<272,13,6,1>,
<272,13,6,2>,
<272,13,6,3>,
<272,13,6,4>,
<272,13,6,5>,
<272,13,6,8>,
<273,1,10,1>,
<273,1,10,2>,
<273,1,10,3>,
<273,1,10,5>,
<273,1,10,6>,
<273,1,10,7>,
<273,1,10,8>,
<273,2,10,1>,
<273,2,10,2>,
<273,2,10,3>,
<273,2,10,5>,
<273,2,10,6>,
<273,2,10,7>,
<273,2,10,8>,
<275,4,6,1>,
<275,4,6,2>,
<275,4,6,3>,
<275,5,6,1>,
<275,5,6,2>,
<275,5,6,3>,
<278,9,7,2>,
<278,9,7,3>,
<278,9,7,4>,
<278,9,7,5>,
<278,9,7,6>,
<278,9,7,7>,
<282,3,6,2>,
<282,3,6,5>,
<282,3,6,7>,
<282,3,6,8>,
<284,6,7,4>,
<284,6,7,5>,
<284,6,7,6>,
<284,6,7,8>,
<285,7,9,7>,
<285,7,9,8>,
<285,8,9,7>,
<285,8,9,8>,
<287,10,9,1>,
<287,10,9,2>,
<287,10,9,4>,
<287,10,9,5>,
<287,10,9,7>,
<287,10,9,8>,
<287,11,9,1>,
<287,11,9,2>,
<287,11,9,4>,
<287,11,9,5>,
<287,11,9,7>,
<287,11,9,8>,
<288,12,3,1>,
<288,12,3,2>,
<288,12,3,3>,
<288,12,3,4>,
<288,12,3,5>,
<288,12,3,8>,
<288,13,3,1>,
<288,13,3,2>,
<288,13,3,3>,
<288,13,3,4>,
<288,13,3,5>,
<288,13,3,8>,
<289,1,2,1>,
<289,1,2,2>,
<289,1,2,3>,
<289,1,2,5>,
<289,1,2,6>,
<289,1,2,7>,
<289,1,2,8>,
<289,2,2,1>,
<289,2,2,2>,
<289,2,2,3>,
<289,2,2,5>,
<289,2,2,6>,
<289,2,2,7>,
<289,2,2,8>,
<290,3,10,2>,
<290,3,10,5>,
<290,3,10,7>,
<290,3,10,8>,
<291,4,1,1>,
<291,4,1,2>,
<291,4,1,3>,
<291,5,1,1>,
<291,5,1,2>,
<291,5,1,3>,
<292,6,6,4>,
<292,6,6,5>,
<292,6,6,6>,
<292,6,6,8>,
<293,7,9,7>,
<293,7,9,8>,
<293,8,9,7>,
<293,8,9,8>,
<294,9,9,2>,
<294,9,9,3>,
<294,9,9,4>,
<294,9,9,5>,
<294,9,9,6>,
<294,9,9,7>,
<295,10,3,1>,
<295,10,3,2>,
<295,10,3,4>,
<295,10,3,5>,
<295,10,3,7>,
<295,10,3,8>,
<295,11,3,1>,
<295,11,3,2>,
<295,11,3,4>,
<295,11,3,5>,
<295,11,3,7>,
<295,11,3,8>,
<296,12,8,1>,
<296,12,8,2>,
<296,12,8,3>,
<296,12,8,4>,
<296,12,8,5>,
<296,12,8,8>,
<296,13,8,1>,
<296,13,8,2>,
<296,13,8,3>,
<296,13,8,4>,
<296,13,8,5>,
<296,13,8,8>,
<297,1,10,1>,
<297,1,10,2>,
<297,1,10,3>,
<297,1,10,5>,
<297,1,10,6>,
<297,1,10,7>,
<297,1,10,8>,
<297,2,10,1>,
<297,2,10,2>,
<297,2,10,3>,
<297,2,10,5>,
<297,2,10,6>,
<297,2,10,7>,
<297,2,10,8>,
<298,3,7,2>,
<298,3,7,5>,
<298,3,7,7>,
<298,3,7,8>,
<299,4,2,1>,
<299,4,2,2>,
<299,4,2,3>,
<299,5,2,1>,
<299,5,2,2>,
<299,5,2,3>,
<301,7,5,7>,
<301,7,5,8>,
<301,8,5,7>,
<301,8,5,8>,
<302,9,1,2>,
<302,9,1,3>,
<302,9,1,4>,
<302,9,1,5>,
<302,9,1,6>,
<302,9,1,7>,
<304,12,1,1>,
<304,12,1,2>,
<304,12,1,3>,
<304,12,1,4>,
<304,12,1,5>,
<304,12,1,8>,
<304,13,1,1>,
<304,13,1,2>,
<304,13,1,3>,
<304,13,1,4>,
<304,13,1,5>,
<304,13,1,8>,
<305,1,5,1>,
<305,1,5,2>,
<305,1,5,3>,
<305,1,5,5>,
<305,1,5,6>,
<305,1,5,7>,
<305,1,5,8>,
<305,2,5,1>,
<305,2,5,2>,
<305,2,5,3>,
<305,2,5,5>,
<305,2,5,6>,
<305,2,5,7>,
<305,2,5,8>,
<309,7,8,7>,
<309,7,8,8>,
<309,8,8,7>,
<309,8,8,8>,
<311,10,7,1>,
<311,10,7,2>,
<311,10,7,4>,
<311,10,7,5>,
<311,10,7,7>,
<311,10,7,8>,
<311,11,7,1>,
<311,11,7,2>,
<311,11,7,4>,
<311,11,7,5>,
<311,11,7,7>,
<311,11,7,8>,
<313,1,2,1>,
<313,1,2,2>,
<313,1,2,3>,
<313,1,2,5>,
<313,1,2,6>,
<313,1,2,7>,
<313,1,2,8>,
<313,2,2,1>,
<313,2,2,2>,
<313,2,2,3>,
<313,2,2,5>,
<313,2,2,6>,
<313,2,2,7>,
<313,2,2,8>,
<314,3,1,2>,
<314,3,1,5>,
<314,3,1,7>,
<314,3,1,8>,
<315,4,7,1>,
<315,4,7,2>,
<315,4,7,3>,
<315,5,7,1>,
<315,5,7,2>,
<315,5,7,3>,
<316,6,3,4>,
<316,6,3,5>,
<316,6,3,6>,
<316,6,3,8>,
<317,7,3,7>,
<317,7,3,8>,
<317,8,3,7>,
<317,8,3,8>,
<318,9,8,2>,
<318,9,8,3>,
<318,9,8,4>,
<318,9,8,5>,
<318,9,8,6>,
<318,9,8,7>,
<319,10,2,1>,
<319,10,2,2>,
<319,10,2,4>,
<319,10,2,5>,
<319,10,2,7>,
<319,10,2,8>,
<319,11,2,1>,
<319,11,2,2>,
<319,11,2,4>,
<319,11,2,5>,
<319,11,2,7>,
<319,11,2,8>,
<320,12,5,1>,
<320,12,5,2>,
<320,12,5,3>,
<320,12,5,4>,
<320,12,5,5>,
<320,12,5,8>,
<320,13,5,1>,
<320,13,5,2>,
<320,13,5,3>,
<320,13,5,4>,
<320,13,5,5>,
<320,13,5,8>,
<321,1,9,1>,
<321,1,9,2>,
<321,1,9,3>,
<321,1,9,5>,
<321,1,9,6>,
<321,1,9,7>,
<321,1,9,8>,
<321,2,9,1>,
<321,2,9,2>,
<321,2,9,3>,
<321,2,9,5>,
<321,2,9,6>,
<321,2,9,7>,
<321,2,9,8>,
<322,3,5,2>,
<322,3,5,5>,
<322,3,5,7>,
<322,3,5,8>,
<325,7,5,7>,
<325,7,5,8>,
<325,8,5,7>,
<325,8,5,8>,
<326,9,10,2>,
<326,9,10,3>,
<326,9,10,4>,
<326,9,10,5>,
<326,9,10,6>,
<326,9,10,7>,
<327,10,7,1>,
<327,10,7,2>,
<327,10,7,4>,
<327,10,7,5>,
<327,10,7,7>,
<327,10,7,8>,
<327,11,7,1>,
<327,11,7,2>,
<327,11,7,4>,
<327,11,7,5>,
<327,11,7,7>,
<327,11,7,8>,
<329,1,6,1>,
<329,1,6,2>,
<329,1,6,3>,
<329,1,6,5>,
<329,1,6,6>,
<329,1,6,7>,
<329,1,6,8>,
<329,2,6,1>,
<329,2,6,2>,
<329,2,6,3>,
<329,2,6,5>,
<329,2,6,6>,
<329,2,6,7>,
<329,2,6,8>,
<332,6,9,4>,
<332,6,9,5>,
<332,6,9,6>,
<332,6,9,8>,
<335,10,10,1>,
<335,10,10,2>,
<335,10,10,4>,
<335,10,10,5>,
<335,10,10,7>,
<335,10,10,8>,
<335,11,10,1>,
<335,11,10,2>,
<335,11,10,4>,
<335,11,10,5>,
<335,11,10,7>,
<335,11,10,8>,
<336,12,2,1>,
<336,12,2,2>,
<336,12,2,3>,
<336,12,2,4>,
<336,12,2,5>,
<336,12,2,8>,
<336,13,2,1>,
<336,13,2,2>,
<336,13,2,3>,
<336,13,2,4>,
<336,13,2,5>,
<336,13,2,8>,
<337,1,9,1>,
<337,1,9,2>,
<337,1,9,3>,
<337,1,9,5>,
<337,1,9,6>,
<337,1,9,7>,
<337,1,9,8>,
<337,2,9,1>,
<337,2,9,2>,
<337,2,9,3>,
<337,2,9,5>,
<337,2,9,6>,
<337,2,9,7>,
<337,2,9,8>,
<338,3,10,2>,
<338,3,10,5>,
<338,3,10,7>,
<338,3,10,8>,
<339,4,4,1>,
<339,4,4,2>,
<339,4,4,3>,
<339,5,4,1>,
<339,5,4,2>,
<339,5,4,3>,
<340,6,4,4>,
<340,6,4,5>,
<340,6,4,6>,
<340,6,4,8>,
<341,7,2,7>,
<341,7,2,8>,
<341,8,2,7>,
<341,8,2,8>,
<342,9,3,2>,
<342,9,3,3>,
<342,9,3,4>,
<342,9,3,5>,
<342,9,3,6>,
<342,9,3,7>,
<343,10,9,1>,
<343,10,9,2>,
<343,10,9,4>,
<343,10,9,5>,
<343,10,9,7>,
<343,10,9,8>,
<343,11,9,1>,
<343,11,9,2>,
<343,11,9,4>,
<343,11,9,5>,
<343,11,9,7>,
<343,11,9,8>,
<344,12,1,1>,
<344,12,1,2>,
<344,12,1,3>,
<344,12,1,4>,
<344,12,1,5>,
<344,12,1,8>,
<344,13,1,1>,
<344,13,1,2>,
<344,13,1,3>,
<344,13,1,4>,
<344,13,1,5>,
<344,13,1,8>,
<345,1,2,1>,
<345,1,2,2>,
<345,1,2,3>,
<345,1,2,5>,
<345,1,2,6>,
<345,1,2,7>,
<345,1,2,8>,
<345,2,2,1>,
<345,2,2,2>,
<345,2,2,3>,
<345,2,2,5>,
<345,2,2,6>,
<345,2,2,7>,
<345,2,2,8>,
<346,3,1,2>,
<346,3,1,5>,
<346,3,1,7>,
<346,3,1,8>,
<348,6,6,4>,
<348,6,6,5>,
<348,6,6,6>,
<348,6,6,8>,
<352,12,1,1>,
<352,12,1,2>,
<352,12,1,3>,
<352,12,1,4>,
<352,12,1,5>,
<352,12,1,8>,
<352,13,1,1>,
<352,13,1,2>,
<352,13,1,3>,
<352,13,1,4>,
<352,13,1,5>,
<352,13,1,8>,
<355,4,6,1>,
<355,4,6,2>,
<355,4,6,3>,
<355,5,6,1>,
<355,5,6,2>,
<355,5,6,3>,
<357,7,4,7>,
<357,7,4,8>,
<357,8,4,7>,
<357,8,4,8>,
<360,12,6,1>,
<360,12,6,2>,
<360,12,6,3>,
<360,12,6,4>,
<360,12,6,5>,
<360,12,6,8>,
<360,13,6,1>,
<360,13,6,2>,
<360,13,6,3>,
<360,13,6,4>,
<360,13,6,5>,
<360,13,6,8>,
<361,1,4,1>,
<361,1,4,2>,
<361,1,4,3>,
<361,1,4,5>,
<361,1,4,6>,
<361,1,4,7>,
<361,1,4,8>,
<361,2,4,1>,
<361,2,4,2>,
<361,2,4,3>,
<361,2,4,5>,
<361,2,4,6>,
<361,2,4,7>,
<361,2,4,8>,
<362,3,2,2>,
<362,3,2,5>,
<362,3,2,7>,
<362,3,2,8>,
<363,4,2,1>,
<363,4,2,2>,
<363,4,2,3>,
<363,5,2,1>,
<363,5,2,2>,
<363,5,2,3>,
<364,6,7,4>,
<364,6,7,5>,
<364,6,7,6>,
<364,6,7,8>,
<365,7,6,7>,
<365,7,6,8>,
<365,8,6,7>,
<365,8,6,8>,
<366,9,4,2>,
<366,9,4,3>,
<366,9,4,4>,
<366,9,4,5>,
<366,9,4,6>,
<366,9,4,7>,
<367,10,6,1>,
<367,10,6,2>,
<367,10,6,4>,
<367,10,6,5>,
<367,10,6,7>,
<367,10,6,8>,
<367,11,6,1>,
<367,11,6,2>,
<367,11,6,4>,
<367,11,6,5>,
<367,11,6,7>,
<367,11,6,8>,
<368,12,4,1>,
<368,12,4,2>,
<368,12,4,3>,
<368,12,4,4>,
<368,12,4,5>,
<368,12,4,8>,
<368,13,4,1>,
<368,13,4,2>,
<368,13,4,3>,
<368,13,4,4>,
<368,13,4,5>,
<368,13,4,8>,
<369,1,9,1>,
<369,1,9,2>,
<369,1,9,3>,
<369,1,9,5>,
<369,1,9,6>,
<369,1,9,7>,
<369,1,9,8>,
<369,2,9,1>,
<369,2,9,2>,
<369,2,9,3>,
<369,2,9,5>,
<369,2,9,6>,
<369,2,9,7>,
<369,2,9,8>,
<372,6,7,4>,
<372,6,7,5>,
<372,6,7,6>,
<372,6,7,8>,
<374,9,5,2>,
<374,9,5,3>,
<374,9,5,4>,
<374,9,5,5>,
<374,9,5,6>,
<374,9,5,7>,
<375,10,2,1>,
<375,10,2,2>,
<375,10,2,4>,
<375,10,2,5>,
<375,10,2,7>,
<375,10,2,8>,
<375,11,2,1>,
<375,11,2,2>,
<375,11,2,4>,
<375,11,2,5>,
<375,11,2,7>,
<375,11,2,8>,
<376,12,5,1>,
<376,12,5,2>,
<376,12,5,3>,
<376,12,5,4>,
<376,12,5,5>,
<376,12,5,8>,
<376,13,5,1>,
<376,13,5,2>,
<376,13,5,3>,
<376,13,5,4>,
<376,13,5,5>,
<376,13,5,8>,
<378,3,10,2>,
<378,3,10,5>,
<378,3,10,7>,
<378,3,10,8>,
<380,6,1,4>,
<380,6,1,5>,
<380,6,1,6>,
<380,6,1,8>,
<381,7,3,7>,
<381,7,3,8>,
<381,8,3,7>,
<381,8,3,8>,
<382,9,4,2>,
<382,9,4,3>,
<382,9,4,4>,
<382,9,4,5>,
<382,9,4,6>,
<382,9,4,7>,
<383,10,9,1>,
<383,10,9,2>,
<383,10,9,4>,
<383,10,9,5>,
<383,10,9,7>,
<383,10,9,8>,
<383,11,9,1>,
<383,11,9,2>,
<383,11,9,4>,
<383,11,9,5>,
<383,11,9,7>,
<383,11,9,8>,
<384,12,9,1>,
<384,12,9,2>,
<384,12,9,3>,
<384,12,9,4>,
<384,12,9,5>,
<384,12,9,8>,
<384,13,9,1>,
<384,13,9,2>,
<384,13,9,3>,
<384,13,9,4>,
<384,13,9,5>,
<384,13,9,8>,
<385,1,3,1>,
<385,1,3,2>,
<385,1,3,3>,
<385,1,3,5>,
<385,1,3,6>,
<385,1,3,7>,
<385,1,3,8>,
<385,2,3,1>,
<385,2,3,2>,
<385,2,3,3>,
<385,2,3,5>,
<385,2,3,6>,
<385,2,3,7>,
<385,2,3,8>,
<386,3,10,2>,
<386,3,10,5>,
<386,3,10,7>,
<386,3,10,8>,
<387,4,8,1>,
<387,4,8,2>,
<387,4,8,3>,
<387,5,8,1>,
<387,5,8,2>,
<387,5,8,3>,
<388,6,8,4>,
<388,6,8,5>,
<388,6,8,6>,
<388,6,8,8>,
<389,7,8,7>,
<389,7,8,8>,
<389,8,8,7>,
<389,8,8,8>,
<390,9,8,2>,
<390,9,8,3>,
<390,9,8,4>,
<390,9,8,5>,
<390,9,8,6>,
<390,9,8,7>,
<391,10,7,1>,
<391,10,7,2>,
<391,10,7,4>,
<391,10,7,5>,
<391,10,7,7>,
<391,10,7,8>,
<391,11,7,1>,
<391,11,7,2>,
<391,11,7,4>,
<391,11,7,5>,
<391,11,7,7>,
<391,11,7,8>,
<392,12,8,1>,
<392,12,8,2>,
<392,12,8,3>,
<392,12,8,4>,
<392,12,8,5>,
<392,12,8,8>,
<392,13,8,1>,
<392,13,8,2>,
<392,13,8,3>,
<392,13,8,4>,
<392,13,8,5>,
<392,13,8,8>,
<393,1,4,1>,
<393,1,4,2>,
<393,1,4,3>,
<393,1,4,5>,
<393,1,4,6>,
<393,1,4,7>,
<393,1,4,8>,
<393,2,4,1>,
<393,2,4,2>,
<393,2,4,3>,
<393,2,4,5>,
<393,2,4,6>,
<393,2,4,7>,
<393,2,4,8>,
<395,4,9,1>,
<395,4,9,2>,
<395,4,9,3>,
<395,5,9,1>,
<395,5,9,2>,
<395,5,9,3>,
<396,6,2,4>,
<396,6,2,5>,
<396,6,2,6>,
<396,6,2,8>,
<398,9,3,2>,
<398,9,3,3>,
<398,9,3,4>,
<398,9,3,5>,
<398,9,3,6>,
<398,9,3,7>,
<400,12,4,1>,
<400,12,4,2>,
<400,12,4,3>,
<400,12,4,4>,
<400,12,4,5>,
<400,12,4,8>,
<400,13,4,1>,
<400,13,4,2>,
<400,13,4,3>,
<400,13,4,4>,
<400,13,4,5>,
<400,13,4,8>,
<401,1,10,1>,
<401,1,10,2>,
<401,1,10,3>,
<401,1,10,5>,
<401,1,10,6>,
<401,1,10,7>,
<401,1,10,8>,
<401,2,10,1>,
<401,2,10,2>,
<401,2,10,3>,
<401,2,10,5>,
<401,2,10,6>,
<401,2,10,7>,
<401,2,10,8>,
<402,3,6,2>,
<402,3,6,5>,
<402,3,6,7>,
<402,3,6,8>,
<404,6,1,4>,
<404,6,1,5>,
<404,6,1,6>,
<404,6,1,8>,
<405,7,3,7>,
<405,7,3,8>,
<405,8,3,7>,
<405,8,3,8>,
<407,10,6,1>,
<407,10,6,2>,
<407,10,6,4>,
<407,10,6,5>,
<407,10,6,7>,
<407,10,6,8>,
<407,11,6,1>,
<407,11,6,2>,
<407,11,6,4>,
<407,11,6,5>,
<407,11,6,7>,
<407,11,6,8>,
<409,1,1,1>,
<409,1,1,2>,
<409,1,1,3>,
<409,1,1,5>,
<409,1,1,6>,
<409,1,1,7>,
<409,1,1,8>,
<409,2,1,1>,
<409,2,1,2>,
<409,2,1,3>,
<409,2,1,5>,
<409,2,1,6>,
<409,2,1,7>,
<409,2,1,8>,
<410,3,4,2>,
<410,3,4,5>,
<410,3,4,7>,
<410,3,4,8>,
<411,4,5,1>,
<411,4,5,2>,
<411,4,5,3>,
<411,5,5,1>,
<411,5,5,2>,
<411,5,5,3>,
<412,6,9,4>,
<412,6,9,5>,
<412,6,9,6>,
<412,6,9,8>,
<413,7,8,7>,
<413,7,8,8>,
<413,8,8,7>,
<413,8,8,8>,
<414,9,8,2>,
<414,9,8,3>,
<414,9,8,4>,
<414,9,8,5>,
<414,9,8,6>,
<414,9,8,7>,
<415,10,5,1>,
<415,10,5,2>,
<415,10,5,4>,
<415,10,5,5>,
<415,10,5,7>,
<415,10,5,8>,
<415,11,5,1>,
<415,11,5,2>,
<415,11,5,4>,
<415,11,5,5>,
<415,11,5,7>,
<415,11,5,8>,
<416,12,10,1>,
<416,12,10,2>,
<416,12,10,3>,
<416,12,10,4>,
<416,12,10,5>,
<416,12,10,8>,
<416,13,10,1>,
<416,13,10,2>,
<416,13,10,3>,
<416,13,10,4>,
<416,13,10,5>,
<416,13,10,8>,
<417,1,6,1>,
<417,1,6,2>,
<417,1,6,3>,
<417,1,6,5>,
<417,1,6,6>,
<417,1,6,7>,
<417,1,6,8>,
<417,2,6,1>,
<417,2,6,2>,
<417,2,6,3>,
<417,2,6,5>,
<417,2,6,6>,
<417,2,6,7>,
<417,2,6,8>,
<420,6,10,4>,
<420,6,10,5>,
<420,6,10,6>,
<420,6,10,8>,
<421,7,4,7>,
<421,7,4,8>,
<421,8,4,7>,
<421,8,4,8>,
<422,9,9,2>,
<422,9,9,3>,
<422,9,9,4>,
<422,9,9,5>,
<422,9,9,6>,
<422,9,9,7>,
<423,10,2,1>,
<423,10,2,2>,
<423,10,2,4>,
<423,10,2,5>,
<423,10,2,7>,
<423,10,2,8>,
<423,11,2,1>,
<423,11,2,2>,
<423,11,2,4>,
<423,11,2,5>,
<423,11,2,7>,
<423,11,2,8>,
<426,3,10,2>,
<426,3,10,5>,
<426,3,10,7>,
<426,3,10,8>,
<427,4,10,1>,
<427,4,10,2>,
<427,4,10,3>,
<427,5,10,1>,
<427,5,10,2>,
<427,5,10,3>,
<433,1,3,1>,
<433,1,3,2>,
<433,1,3,3>,
<433,1,3,5>,
<433,1,3,6>,
<433,1,3,7>,
<433,1,3,8>,
<433,2,3,1>,
<433,2,3,2>,
<433,2,3,3>,
<433,2,3,5>,
<433,2,3,6>,
<433,2,3,7>,
<433,2,3,8>,
<434,3,2,2>,
<434,3,2,5>,
<434,3,2,7>,
<434,3,2,8>,
<435,4,10,1>,
<435,4,10,2>,
<435,4,10,3>,
<435,5,10,1>,
<435,5,10,2>,
<435,5,10,3>,
<436,6,6,4>,
<436,6,6,5>,
<436,6,6,6>,
<436,6,6,8>,
<437,7,3,7>,
<437,7,3,8>,
<437,8,3,7>,
<437,8,3,8>,
<438,9,4,2>,
<438,9,4,3>,
<438,9,4,4>,
<438,9,4,5>,
<438,9,4,6>,
<438,9,4,7>,
<439,10,7,1>,
<439,10,7,2>,
<439,10,7,4>,
<439,10,7,5>,
<439,10,7,7>,
<439,10,7,8>,
<439,11,7,1>,
<439,11,7,2>,
<439,11,7,4>,
<439,11,7,5>,
<439,11,7,7>,
<439,11,7,8>,
<440,12,8,1>,
<440,12,8,2>,
<440,12,8,3>,
<440,12,8,4>,
<440,12,8,5>,
<440,12,8,8>,
<440,13,8,1>,
<440,13,8,2>,
<440,13,8,3>,
<440,13,8,4>,
<440,13,8,5>,
<440,13,8,8>,
<441,1,8,1>,
<441,1,8,2>,
<441,1,8,3>,
<441,1,8,5>,
<441,1,8,6>,
<441,1,8,7>,
<441,1,8,8>,
<441,2,8,1>,
<441,2,8,2>,
<441,2,8,3>,
<441,2,8,5>,
<441,2,8,6>,
<441,2,8,7>,
<441,2,8,8>,
<442,3,7,2>,
<442,3,7,5>,
<442,3,7,7>,
<442,3,7,8>,
<443,4,6,1>,
<443,4,6,2>,
<443,4,6,3>,
<443,5,6,1>,
<443,5,6,2>,
<443,5,6,3>,
<444,6,9,4>,
<444,6,9,5>,
<444,6,9,6>,
<444,6,9,8>,
<448,12,1,1>,
<448,12,1,2>,
<448,12,1,3>,
<448,12,1,4>,
<448,12,1,5>,
<448,12,1,8>,
<448,13,1,1>,
<448,13,1,2>,
<448,13,1,3>,
<448,13,1,4>,
<448,13,1,5>,
<448,13,1,8>,
<449,1,9,1>,
<449,1,9,2>,
<449,1,9,3>,
<449,1,9,5>,
<449,1,9,6>,
<449,1,9,7>,
<449,1,9,8>,
<449,2,9,1>,
<449,2,9,2>,
<449,2,9,3>,
<449,2,9,5>,
<449,2,9,6>,
<449,2,9,7>,
<449,2,9,8>,
<452,6,8,4>,
<452,6,8,5>,
<452,6,8,6>,
<452,6,8,8>,
<455,10,10,1>,
<455,10,10,2>,
<455,10,10,4>,
<455,10,10,5>,
<455,10,10,7>,
<455,10,10,8>,
<455,11,10,1>,
<455,11,10,2>,
<455,11,10,4>,
<455,11,10,5>,
<455,11,10,7>,
<455,11,10,8>
 };
